$molecule
0 1
Li 0 0 0
H  0 0 1.652685688
$end

$rem
jobtype			AIMD
EXCHANGE        	HF
BASIS           	6-31G
CIS_N_ROOTS		2
CIS_SINGLETS		TRUE
CIS_TRIPLETS		FALSE
SET_STATE_DERIV		2
CALC_NAC		TRUE
AIMD_STEPS      	100
TIME_STEP       	10
PROJ_TRANSROT   	TRUE ! remove net rotation and tranlation
AIMD_INTEGRATION	VVERLET
FSSH_LOWESTSURFACE	1
FSSH_INITIALSURFACE	2 !initial surface
FSSH_NSURFACES		2 !total surfaces
AFSSH			0 !FSSH not A-FSSH
$end

$comment
0 0 -7e-5
0 0  5e-4
$end

$velocity
0 0 -5e-4
0 0  5e-3
$end