$molecule
0 3
 C        -2.0882581642    0.6374657635    0.0165109268
 C        -3.3893732856    0.2837169778   -0.6596225929
 C        -3.3864662267    0.6812905712   -2.1386667717
 C        -2.0851341215    0.3215060189   -2.8112043523
 H        -2.0819902600    0.1231744987   -3.8859832626
 C        -0.9397734672    0.3198216228   -2.1133706351
 H         0.0122699402    0.1069907862   -2.6047562036
 C        -0.9409914876    0.6338150516   -0.6781727447
 H         0.0107137604    0.8420175373   -0.1841571964
 H        -2.0871718305    0.8357317736    1.0913053062
 H        -4.2399955859    0.7531168386   -0.1433029371
 H        -3.5386927882   -0.8105763641   -0.5682384784
 H        -4.2377887049    0.2156412090   -2.6572293576
 H        -3.5306194784    1.7762345149   -2.2305195007
$end

$rem
JOBTYPE         SP
EXCHANGE        BHHLYP
SPIN_FLIP       1
BASIS           cc-PVDZ
MAX_SCF_CYCLES  200
MAX_CIS_CYCLES  50
CIS_N_ROOTS     20
CIS_SINGLETS    TRUE
CIS_TRIPLETS    FALSE
MEM_STATIC      2000
MEM_TOTAL               10000
DFT_D   EMPIRICAL_GRIMME
GUI 2
$end

